NAME cross-pollination_srl_ilp
* Max problem is converted into Min one
ROWS
 N  OBJ
 L  constraint1_5360
 L  constraint2_5360
 L  constraint2_5361
 L  constraint2_5362
 L  constraint2_5363
COLUMNS
    MARKER    'MARKER'                 'INTORG'
    Z_536_0_0  OBJ       -5.6855783156158241e-05
    Z_536_0_0  constraint1_5360  1
    Z_536_0_0  constraint2_5360  1
    Z_536_0_1  OBJ       -2.3094301320023582e-03
    Z_536_0_1  constraint1_5360  1
    Z_536_0_1  constraint2_5361  1
    Z_536_0_2  OBJ       -8.3644889986193904e-01
    Z_536_0_2  constraint1_5360  1
    Z_536_0_2  constraint2_5362  1
    Z_536_0_3  OBJ       -2.8770333889106096e-03
    Z_536_0_3  constraint1_5360  1
    Z_536_0_3  constraint2_5363  1
    Z_536_0_4  OBJ       -5.8307780833991803e-02
    Z_536_0_4  constraint1_5360  1
    MARKER    'MARKER'                 'INTEND'
RHS
    RHS1      constraint1_5360  1
    RHS1      constraint2_5360  1
    RHS1      constraint2_5361  1
    RHS1      constraint2_5362  1
    RHS1      constraint2_5363  1
BOUNDS
 UP BND1      Z_536_0_0  1
 UP BND1      Z_536_0_1  1
 UP BND1      Z_536_0_2  1
 UP BND1      Z_536_0_3  1
 UP BND1      Z_536_0_4  1
ENDATA
